Optimal - objective value 17.00000000
      1 x_0_2                   1                       1
     18 x_0_19                  1                       1
     27 x_1_8                   1                       1
     36 x_1_17                  1                       3
     55 x_2_17                  1                       3
     59 x_2_21                  1                       3
     83 x_4_10                  1                       2
    153 x_9_10                  1                       1
    162 x_9_19                  1                       2
    233 f_0_2                   5                       0
    234 f_2_0                   1                       0
    267 f_0_19                  4                       0
    268 f_19_0                  2                       0
    285 f_1_8                 3.5                       0
    286 f_8_1                 2.5                       0
    303 f_1_17                  2                       0
    304 f_17_1                  4                       0
    341 f_2_17                4.5                       0
    342 f_17_2                1.5                       0
    349 f_2_21                3.5                       0
    350 f_21_2                2.5                       0
    397 f_4_10                2.5                       0
    398 f_10_4                3.5                       0
    537 f_9_10                  1                       0
    555 f_9_19                  2                       0
    556 f_19_9                  4                       0
